(set-option :produce-models true); benchmark generated from python API
(set-info :status unknown)
(declare-fun l_1_0_9 () Real)
(declare-fun l_1_0_8 () Real)
(declare-fun l_1_0_7 () Real)
(declare-fun l_1_0_6 () Real)
(declare-fun l_1_0_2 () Real)
(declare-fun _a_0_ () Real)
(declare-fun l_1_0_13 () Real)
(declare-fun l_1_0_11 () Real)
(declare-fun l_1_0_12 () Real)
(declare-fun l_1_0_10 () Real)
(declare-fun _a_1_ () Real)
(declare-fun l_1_0_5 () Real)
(declare-fun l_1_0_4 () Real)
(declare-fun l_1_0_3 () Real)
(declare-fun l_1_0_14 () Real)
(declare-fun _a_2_ () Real)
(declare-fun l_1_0_1 () Real)
(declare-fun _a_3_ () Real)
(declare-fun l_1_1_8 () Real)
(declare-fun l_1_1_7 () Real)
(declare-fun l_1_1_6 () Real)
(declare-fun l_1_1_3 () Real)
(declare-fun l_1_1_15 () Real)
(declare-fun l_1_1_14 () Real)
(declare-fun l_1_1_13 () Real)
(declare-fun l_1_1_12 () Real)
(declare-fun l_1_1_10 () Real)
(declare-fun l_1_1_1 () Real)
(declare-fun l_1_1_9 () Real)
(declare-fun l_1_1_5 () Real)
(declare-fun l_1_1_4 () Real)
(declare-fun l_1_1_2 () Real)
(declare-fun l_1_1_11 () Real)
(declare-fun l_1_1_20 () Real)
(declare-fun l_1_1_19 () Real)
(declare-fun l_1_1_18 () Real)
(declare-fun l_1_1_17 () Real)
(declare-fun l_1_1_16 () Real)
(declare-fun l_1_2_9 () Real)
(declare-fun l_1_2_8 () Real)
(declare-fun l_1_2_7 () Real)
(declare-fun l_1_2_5 () Real)
(declare-fun l_1_2_3 () Real)
(declare-fun l_1_2_15 () Real)
(declare-fun l_1_2_14 () Real)
(declare-fun l_1_2_13 () Real)
(declare-fun l_1_2_10 () Real)
(declare-fun l_1_2_1 () Real)
(declare-fun l_1_2_6 () Real)
(declare-fun l_1_2_4 () Real)
(declare-fun l_1_2_2 () Real)
(declare-fun l_1_2_12 () Real)
(declare-fun l_1_2_11 () Real)
(declare-fun l_1_2_19 () Real)
(declare-fun l_1_2_17 () Real)
(declare-fun l_1_2_18 () Real)
(declare-fun l_1_2_16 () Real)
(declare-fun l_1_2_20 () Real)
(assert
 (let ((?x51 (* l_1_0_9 l_1_0_9)))
 (let ((?x1369 (- (- (- (- (- _a_0_ l_1_0_2) l_1_0_6) l_1_0_7) l_1_0_8) ?x51)))
 (= ?x1369 0.0))))
(assert
 (let ((?x1332 (- (- _a_1_ (* (* 2.0 l_1_0_10) l_1_0_12)) (* (* 2.0 l_1_0_11) l_1_0_13))))
 (= ?x1332 0.0)))
(assert
 (let ((?x1300 (* l_1_0_14 l_1_0_14)))
 (let ((?x1289 (- (- (- _a_2_ (* l_1_0_12 l_1_0_12)) (* l_1_0_13 l_1_0_13)) ?x1300)))
 (= (+ (+ (+ ?x1289 l_1_0_3) l_1_0_4) l_1_0_5) 0.0))))
(assert
 (let ((?x1269 (* l_1_0_11 l_1_0_11)))
 (let ((?x1270 (- (- (- _a_3_ (* 4.0 l_1_0_1)) (* l_1_0_10 l_1_0_10)) ?x1269)))
 (= (+ (+ (+ ?x1270 l_1_0_3) l_1_0_4) l_1_0_5) 0.0))))
(assert
 (= (- l_1_0_1) 0.0))
(assert
 (= (* (- 2.0) l_1_0_1) 0.0))
(assert
 (let ((?x1265 (* 4.0 l_1_0_1)))
 (= ?x1265 0.0)))
(assert
 (= (- l_1_0_1) 0.0))
(assert
 (let ((?x1265 (* 4.0 l_1_0_1)))
 (= ?x1265 0.0)))
(assert
 (let ((?x1190 (* 2.0 l_1_0_5)))
 (let ((?x1188 (* 2.0 l_1_0_4)))
 (let ((?x1191 (- (- (- (* (* (- 2.0) l_1_0_10) l_1_0_9) (* 2.0 l_1_0_3)) ?x1188) ?x1190)))
 (= ?x1191 0.0)))))
(assert
 (= (* (* (- 2.0) l_1_0_12) l_1_0_9) 0.0))
(assert
 (>= l_1_0_1 0.0))
(assert
 (>= l_1_0_2 0.0))
(assert
 (>= l_1_0_3 0.0))
(assert
 (>= l_1_0_4 0.0))
(assert
 (>= l_1_0_5 0.0))
(assert
 (>= l_1_0_6 0.0))
(assert
 (>= l_1_0_7 0.0))
(assert
 (>= l_1_0_8 0.0))
(assert
 (>= l_1_0_9 0.0))
(assert
 (>= l_1_0_11 0.0))
(assert
 (>= l_1_0_14 0.0))
(assert
 (let ((?x1036 (* l_1_1_15 l_1_1_15)))
 (let ((?x1094 (* _a_0_ l_1_1_9)))
 (let ((?x714 (* _a_0_ l_1_1_5)))
 (let ((?x713 (+ (- (* (* 1.0 _a_0_) l_1_1_11) (* _a_0_ l_1_1_2)) (* (* 1.0 _a_0_) l_1_1_4))))
 (let ((?x1028 (- (- (- (- (- ?x713 ?x714) ?x1094) l_1_1_1) l_1_1_10) (* 1.0 l_1_1_12))))
 (let ((?x1040 (+ (- (- (- ?x1028 (* (* l_1_1_13 _a_0_) _a_0_)) l_1_1_14) ?x1036) (* 1.0 l_1_1_3))))
 (let ((?x980 (+ (- (+ (+ ?x1040 (* 1.0 l_1_1_6)) (* 1.0 l_1_1_7)) l_1_1_8) 3.0)))
 (= ?x980 0.0)))))))))
(assert
 (let ((?x858 (* l_1_1_20 l_1_1_20)))
 (let ((?x856 (* l_1_1_19 l_1_1_19)))
 (let ((?x853 (* l_1_1_18 l_1_1_18)))
 (let ((?x882 (* _a_2_ l_1_1_9)))
 (let ((?x880 (* _a_2_ l_1_1_5)))
 (let ((?x876 (* _a_2_ l_1_1_2)))
 (let ((?x875 (+ (* (* (* (- 2.0) _a_0_) _a_2_) l_1_1_13) (* (* 1.0 _a_2_) l_1_1_11))))
 (let ((?x883 (- (- (+ (- ?x875 ?x876) (* (* 1.0 _a_2_) l_1_1_4)) ?x880) ?x882)))
 (= (- (- (- (- ?x883 ?x853) ?x856) ?x858) 1.0) 0.0))))))))))
(assert
 (let ((?x730 (* l_1_1_17 l_1_1_17)))
 (let ((?x727 (* l_1_1_16 l_1_1_16)))
 (let ((?x725 (* _a_3_ l_1_1_9)))
 (let ((?x723 (* _a_3_ l_1_1_5)))
 (let ((?x719 (* _a_3_ l_1_1_2)))
 (let ((?x718 (+ (* (* (* (- 2.0) _a_0_) _a_3_) l_1_1_13) (* (* 1.0 _a_3_) l_1_1_11))))
 (let ((?x726 (- (- (+ (- ?x718 ?x719) (* (* 1.0 _a_3_) l_1_1_4)) ?x723) ?x725)))
 (= (- (- (- ?x726 ?x727) ?x730) 1.0) 0.0)))))))))
(assert
 (= (+ (* (* (- 2.0) l_1_1_15) l_1_1_16) 2.0) 0.0))
(assert
 (let ((?x21 (* _a_1_ l_1_1_9)))
 (let ((?x23 (* _a_1_ l_1_1_5)))
 (let ((?x27 (* _a_1_ l_1_1_2)))
 (let ((?x676 (+ (* (* (* (- 2.0) _a_0_) _a_1_) l_1_1_13) (* (* 1.0 _a_1_) l_1_1_11))))
 (let ((?x672 (- (- (+ (- ?x676 ?x27) (* (* 1.0 _a_1_) l_1_1_4)) ?x23) ?x21)))
 (let ((?x662 (- (- ?x672 (* (* 2.0 l_1_1_16) l_1_1_18)) (* (* 2.0 l_1_1_17) l_1_1_19))))
 (= ?x662 0.0))))))))
(assert
 (let ((?x536 (* _a_1_ _a_1_)))
 (let ((?x498 (+ ?x536 (* (* 2.0 _a_2_) _a_3_))))
 (let ((?x535 (- l_1_1_13)))
 (= (* ?x535 ?x498) 0.0)))))
(assert
 (= (* (* (* (- 2.0) _a_1_) _a_2_) l_1_1_13) 0.0))
(assert
 (= (* (* (* (- 2.0) _a_1_) _a_3_) l_1_1_13) 0.0))
(assert
 (= (* (* (- l_1_1_13) _a_2_) _a_2_) 0.0))
(assert
 (= (* (* (- l_1_1_13) _a_3_) _a_3_) 0.0))
(assert
 (= (* (* (- 2.0) l_1_1_15) l_1_1_18) 0.0))
(assert
 (>= l_1_1_1 0.0))
(assert
 (>= l_1_1_2 0.0))
(assert
 (>= l_1_1_3 0.0))
(assert
 (>= l_1_1_4 0.0))
(assert
 (>= l_1_1_5 0.0))
(assert
 (>= l_1_1_6 0.0))
(assert
 (>= l_1_1_7 0.0))
(assert
 (>= l_1_1_8 0.0))
(assert
 (>= l_1_1_9 0.0))
(assert
 (>= l_1_1_10 0.0))
(assert
 (>= l_1_1_11 0.0))
(assert
 (>= l_1_1_12 0.0))
(assert
 (>= l_1_1_13 0.0))
(assert
 (>= l_1_1_14 0.0))
(assert
 (>= l_1_1_15 0.0))
(assert
 (>= l_1_1_17 0.0))
(assert
 (>= l_1_1_20 0.0))
(assert
 (let ((?x322 (* l_1_2_15 l_1_2_15)))
 (let ((?x314 (* (/ 25897921.0 2500000000000000.0) _a_3_)))
 (let ((?x311 (* (/ 1.0 10000.0) _a_2_)))
 (let ((?x308 (* (/ 5089.0 5000000000.0) _a_1_)))
 (let ((?x369 (* _a_0_ l_1_2_6)))
 (let ((?x365 (* _a_0_ l_1_2_2)))
 (let ((?x366 (- (- (* (- _a_0_) l_1_2_11) (* (* 1.0 _a_0_) l_1_2_12)) ?x365)))
 (let ((?x309 (+ (+ (- (- ?x366 (* (* 1.0 _a_0_) l_1_2_4)) ?x369) _a_0_) ?x308)))
 (let ((?x320 (- (- (- (+ (+ ?x309 ?x311) ?x314) l_1_2_1) (* 1.0 l_1_2_10)) (* 1.0 l_1_2_13))))
 (let ((?x327 (- (- (- (- ?x320 l_1_2_14) ?x322) (* 1.0 l_1_2_3)) (* 1.0 l_1_2_5))))
 (let ((?x286 (- (- (- ?x327 (* (* l_1_2_7 _a_0_) _a_0_)) l_1_2_8) l_1_2_9)))
 (= ?x286 0.0)))))))))))))
(assert
 (let ((?x162 (* (/ 207280909786429.0 10000000000000000.0) _a_3_)))
 (let ((?x159 (* (/ 1036521.0 50000000.0) _a_2_)))
 (let ((?x197 (* (/ 12497251686731.0 12500000000000.0) _a_1_)))
 (let ((?x215 (* _a_1_ l_1_2_6)))
 (let ((?x176 (* _a_1_ l_1_2_2)))
 (let ((?x220 (* _a_1_ l_1_2_11)))
 (let ((?x170 (- (- (* (* (* (- 2.0) _a_0_) _a_1_) l_1_2_7) ?x220) (* (* 1.0 _a_1_) l_1_2_12))))
 (let ((?x198 (+ (- (- (- ?x170 ?x176) (* (* 1.0 _a_1_) l_1_2_4)) ?x215) ?x197)))
 (let ((?x84 (- (- (+ (- ?x198 ?x159) ?x162) (* (* 2.0 l_1_2_16) l_1_2_18)) (* (* 2.0 l_1_2_17) l_1_2_19))))
 (= ?x84 0.0)))))))))))
(assert
 (let ((?x886 (* l_1_2_20 l_1_2_20)))
 (let ((?x889 (* l_1_2_19 l_1_2_19)))
 (let ((?x1282 (* l_1_2_18 l_1_2_18)))
 (let ((?x1275 (* (/ 1112484251041.0 10000000000000000.0) _a_3_)))
 (let ((?x1005 (* _a_2_ l_1_2_6)))
 (let ((?x742 (* _a_2_ l_1_2_2)))
 (let ((?x152 (* _a_2_ l_1_2_11)))
 (let ((?x154 (- (+ (* (* (* (- 2.0) _a_0_) _a_2_) l_1_2_7) (* (/ 527621.0 50000000.0) _a_1_)) ?x152)))
 (let ((?x744 (- (- (- ?x154 (* (* 1.0 _a_2_) l_1_2_12)) ?x742) (* (* 1.0 _a_2_) l_1_2_4))))
 (= (- (- (- (+ (+ (- ?x744 ?x1005) _a_2_) ?x1275) ?x1282) ?x889) ?x886) 0.0)))))))))))
(assert
 (= (+ (* (/ 18721.0 1000000.0) _a_1_) (* (/ 19404709641.0 50000000000000.0) _a_3_)) 0.0))
(assert
 (= (+ (- (* (- (/ 51108943441.0 50000000000000.0)) _a_1_) (* (/ 18721.0 500000.0) _a_2_)) (* (/ 93562026018491.0 2500000000000000.0) _a_3_)) 0.0))
(assert
 (let ((?x560 (- (+ (+ (* (/ 2054321.0 10000000000.0) _a_1_) (* (/ 1.0 50.0) _a_2_)) (* (/ 5274855369.0 2500000000000000.0) _a_3_)) (* (* 2.0 l_1_2_15) l_1_2_18))))
 (= ?x560 0.0)))
(assert
 (= (- (+ (* (- (/ 37409384775463.0 2000000000000000.0)) _a_1_) (* (/ 221771169.0 250000000000.0) _a_2_)) (* (/ 31698152009291.0 25000000000000000.0) _a_3_)) 0.0))
(assert
 (let ((?x748 (* (/ 38758637278219.0 1250000000000000000.0) _a_3_)))
 (let ((?x749 (- (- (* (* (* (- 2.0) _a_1_) _a_2_) l_1_2_7) (* (/ 350475841.0 500000000000.0) _a_1_)) ?x748)))
 (= ?x749 0.0))))
(assert
 (let ((?x373 (- (- (+ (* (/ 14823540664547.0 500000000000000000.0) _a_1_) (* (/ 350475841.0 1000000000000.0) _a_2_)) (* (/ 700086027943143.0 1000000000000000000.0) _a_3_)) (* l_1_2_7 (+ (* _a_1_ _a_1_) (* (* 2.0 _a_2_) _a_3_))))))
 (= ?x373 0.0)))
(assert
 (let ((?x266 (* (/ 4736413.0 500000000000.0) _a_2_)))
 (let ((?x262 (- (- (* (* (* (- 2.0) _a_1_) _a_3_) l_1_2_7) (* (/ 104315317271.0 250000000000000000.0) _a_1_)) ?x266)))
 (= (+ ?x262 (* (/ 47339458409133.0 2500000000000000000.0) _a_3_)) 0.0))))
(assert
 (let ((?x1104 (- (+ (- (* (/ 124973785829.0 12500000000000.0) _a_1_) (* (/ 5089.0 25000000.0) _a_2_)) (* (/ 40707679574001.0 200000000000000000.0) _a_3_)) (* (* 2.0 l_1_2_15) l_1_2_16))))
 (= ?x1104 0.0)))
(assert
 (let ((?x430 (* l_1_2_17 l_1_2_17)))
 (let ((?x428 (* l_1_2_16 l_1_2_16)))
 (let ((?x865 (* (/ 12497347111777.0 12500000000000.0) _a_3_)))
 (let ((?x867 (* _a_3_ l_1_2_6)))
 (let ((?x705 (* _a_3_ l_1_2_2)))
 (let ((?x336 (* _a_3_ l_1_2_11)))
 (let ((?x343 (* (/ 27162921.0 250000000000.0) _a_2_)))
 (let ((?x328 (+ (- (* (* (* (- 2.0) _a_0_) _a_3_) l_1_2_7) (* (/ 50884213212401.0 5000000000000000.0) _a_1_)) ?x343)))
 (let ((?x707 (- (- (- (- ?x328 ?x336) (* (* 1.0 _a_3_) l_1_2_12)) ?x705) (* (* 1.0 _a_3_) l_1_2_4))))
 (= (- (- (+ (- ?x707 ?x867) ?x865) ?x428) ?x430) 0.0)))))))))))
(assert
 (= (+ (- (* (/ 63230023432961.0 250000000000000000.0) _a_1_) (* (/ 1287517.0 250000000000.0) _a_2_)) (* (/ 51495149512751.0 5000000000000000000.0) _a_3_)) 0.0))
(assert
 (let ((?x780 (- (- (+ (* (/ 977225403.0 500000000000000000.0) _a_1_) (* (/ 64009.0 1000000000000.0) _a_2_)) (* (/ 127977891313853.0 1000000000000000000000.0) _a_3_)) (* (* l_1_2_7 _a_3_) _a_3_))))
 (= ?x780 0.0)))
(assert
 (= (+ (* (/ 6561258219361.0 1000000000000000000.0) _a_1_) (* (/ 6393154170117.0 8000000000000000000.0) _a_3_)) 0.0))
(assert
 (= (- (* (- (/ 266011163319.0 1000000000000000000.0)) _a_1_) (* (/ 180197214150431.0 10000000000000000000000.0) _a_3_)) 0.0))
(assert
 (= (+ (* (/ 3594937467.0 1000000000000000000.0) _a_1_) (* (/ 22343206019563.0 125000000000000000000000.0) _a_3_)) 0.0))
(assert
 (= (- (* (- (/ 16194277.0 1000000000000000000.0)) _a_1_) (* (/ 82412675653.0 125000000000000000000000.0) _a_3_)) 0.0))
(assert
 (= (- (* (/ 350475841.0 1000000000000.0) _a_3_) (* (* l_1_2_7 _a_2_) _a_2_)) 0.0))
(assert
 (= (* (- (/ 6561258219361.0 500000000000000000.0)) _a_3_) 0.0))
(assert
 (= (* (/ 122833315124657.0 1000000000000000000000.0) _a_3_) 0.0))
(assert
 (= (* (- (/ 663999331799333.0 100000000000000000000000.0)) _a_3_) 0.0))
(assert
 (= (* (/ 67300824319707.0 500000000000000000000000.0) _a_3_) 0.0))
(assert
 (= (* (- (/ 303173059717.0 250000000000000000000000.0)) _a_3_) 0.0))
(assert
 (= (* (/ 4097152081.0 1000000000000000000000000.0) _a_3_) 0.0))
(assert
 (>= l_1_2_1 0.0))
(assert
 (>= l_1_2_2 0.0))
(assert
 (>= l_1_2_3 0.0))
(assert
 (>= l_1_2_4 0.0))
(assert
 (>= l_1_2_5 0.0))
(assert
 (>= l_1_2_6 0.0))
(assert
 (>= l_1_2_7 0.0))
(assert
 (>= l_1_2_8 0.0))
(assert
 (>= l_1_2_9 0.0))
(assert
 (>= l_1_2_10 0.0))
(assert
 (>= l_1_2_11 0.0))
(assert
 (>= l_1_2_12 0.0))
(assert
 (>= l_1_2_13 0.0))
(assert
 (>= l_1_2_14 0.0))
(assert
 (>= l_1_2_15 0.0))
(assert
 (>= l_1_2_17 0.0))
(assert
 (>= l_1_2_20 0.0))
(check-sat)
(get-model)